(declare-const a Real)
(declare-const b Real)
(declare-const c Real)
(declare-const d Real)
(assert (= (* a b c d) 1))
(assert (>= a 0))
(assert (>= b 0))
(assert (>= c 0))
(assert (>= d 0))
(assert (not (<= (+ (pow (+ (* 2 (pow (+ b c) 2)) (* 2 (pow (+ (/ 5 6) d (* (/ 1 6) (pow a 6))) 2))) (/ 1 2)) (* -1 a (pow d 4)) (* -1 b (pow a 4)) (* -1 c (pow b 4)) (* -1 d (pow c 4))) 0)))
(check-sat)
(get-model)
(exit)